<number of tasks>
100

<cycle time>
1000

<order strength>
0.595


<task times>
1 184
2 235
3 199
4 338
5 250
6 100
7 121
8 582
9 117
10 429
11 51
12 281
13 77
14 31
15 256
16 195
17 215
18 30
19 71
20 258
21 176
22 220
23 158
24 177
25 291
26 41
27 87
28 330
29 260
30 151
31 187
32 166
33 253
34 107
35 285
36 22
37 96
38 45
39 176
40 225
41 159
42 135
43 211
44 97
45 123
46 520
47 290
48 90
49 392
50 470
51 131
52 169
53 112
54 38
55 293
56 225
57 477
58 181
59 132
60 103
61 474
62 231
63 138
64 84
65 143
66 129
67 115
68 539
69 162
70 579
71 92
72 82
73 50
74 524
75 355
76 215
77 159
78 284
79 258
80 165
81 225
82 508
83 79
84 76
85 332
86 449
87 253
88 496
89 201
90 353
91 208
92 83
93 220
94 302
95 135
96 334
97 390
98 27
99 221
100 475

<precedence relations>
1,9
2,10
3,11
4,14
5,12
5,13
5,14
6,29
7,12
7,13
7,16
8,12
8,13
8,14
8,15
8,16
9,18
10,17
11,19
12,19
12,20
13,19
13,20
14,19
14,20
15,19
15,20
16,29
17,21
18,23
19,22
19,23
20,24
21,25
22,27
23,33
23,34
24,26
24,28
24,29
25,30
26,31
27,33
28,32
28,33
28,34
28,35
28,38
29,34
29,35
30,38
31,39
32,36
32,40
32,42
33,41
34,40
34,42
35,37
36,43
37,44
37,45
37,46
38,61
38,68
39,48
39,49
40,47
40,48
40,49
41,48
41,49
42,48
42,49
43,55
44,50
45,51
46,52
47,54
48,53
48,55
48,56
49,67
49,68
50,57
51,60
52,58
53,59
54,61
56,61
56,62
57,68
58,63
59,64
60,65
61,66
61,67
61,79
62,67
62,68
63,70
64,72
65,72
66,71
67,69
67,72
67,80
68,73
68,74
68,75
68,83
69,76
70,77
71,78
72,77
72,78
73,77
73,79
73,80
74,89
74,90
75,77
75,85
75,100
76,83
77,81
77,82
77,86
79,85
80,84
81,87
82,88
83,90
84,90
86,89
87,91
88,92
89,93
90,94
90,95
90,96
90,97
91,98
92,99
93,99
95,99
96,100
97,99

<end>
